N = 10;
H = 6;
T = 2;

avail = array3d(1..N, 1..H, 1..T, [0, 8, 1, 1, 6, 3, 8, 6, 9, 7, 1, 9, 3, 10, 5, 0, 9, 9, 3, 10, 4, 7, 0, 4, 1, 4, 2, 6, 3, 8, 1, 2, 7, 2, 9, 4, 5, 2, 2, 1, 6, 2, 4, 6, 6, 9, 4, 10, 2, 1, 6, 8, 8, 4, 7, 3, 6, 10, 3, 8, 8, 8, 1, 6, 3, 8, 9, 5, 6, 1, 3, 5, 6, 4, 4, 10, 0, 6, 5, 8, 2, 2, 2, 4, 4, 5, 5, 10, 7, 7, 7, 1, 8, 10, 1, 7, 9, 6, 5, 4, 10, 10, 10, 9, 3, 1, 7, 2, 8, 9, 6, 0, 2, 1, 1, 2, 0, 8, 6, 4]);

r = array2d(1..H, 1..T, [2, 4, 3, 5, 4, 3, 3, 2, 3, 3, 2, 4]);
